m = 2;
n = 6;
max_load = [10, 15];
size = [3, 2, 6, 5, 4, 4];
dist = [|0, 3, 4, 5, 6, 6, 2
                      | 3, 0, 1, 4, 5, 7, 3
                      | 4, 1, 0, 5, 6, 6, 4
                      | 4, 4, 5, 0, 3, 3, 2
                      | 6, 7, 8, 3, 0, 2, 4
                      | 6, 7, 8, 3, 2, 0, 4
                      | 2, 3, 4, 3, 4, 4, 0|];
min_path = 12;
max_path = 24;
max_path_length = 7;
origin  = 7;
number_of_origin_stops = 8;
n_array = [1, 2, 3, 4, 5, 6, 7];
count_array = [1, 1, 1, 1, 1, 1, 8];
        